Version identifier: 22.1.1.0 | 2022-11-28 | 9160aff4d
CPXPARAM_Threads                                 8
CPXPARAM_Emphasis_MIP                            5
CPXPARAM_TimeLimit                               3600
CPXPARAM_MIP_Tolerances_MIPGap                   0.029999999999999999
Tried aggregator 3 times.
MIP Presolve eliminated 71 rows and 35 columns.
MIP Presolve modified 3 coefficients.
Aggregator did 19 substitutions.
Reduced MIP has 53 rows, 41 columns, and 172 nonzeros.
Reduced MIP has 29 binaries, 12 generals, 0 SOSs, and 0 indicators.
Presolve time = 0.01 sec. (0.31 ticks)
Found incumbent of value 250.000000 after 0.03 sec. (0.58 ticks)
Probing time = 0.00 sec. (0.06 ticks)
Tried aggregator 1 time.
Detecting symmetries...
Reduced MIP has 53 rows, 41 columns, and 172 nonzeros.
Reduced MIP has 29 binaries, 12 generals, 0 SOSs, and 0 indicators.
Presolve time = 0.00 sec. (0.10 ticks)
Probing time = 0.00 sec. (0.06 ticks)
Clique table members: 14.
MIP emphasis: heuristic.
MIP search method: dynamic search.
Parallel mode: deterministic, using up to 8 threads.
Root relaxation solution time = 0.00 sec. (0.11 ticks)

        Nodes                                         Cuts/
   Node  Left     Objective  IInf  Best Integer    Best Bound    ItCnt     Gap

*     0+    0                          250.0000       60.0000            76.00%
*     0     0      integral     0      130.0000      130.0000       18    0.00%
Elapsed time = 0.04 sec. (1.01 ticks, tree = 0.00 MB, solutions = 2)
Version identifier: 22.1.1.0 | 2022-11-28 | 9160aff4d
CPXPARAM_Threads                                 8
CPXPARAM_Emphasis_MIP                            5
CPXPARAM_TimeLimit                               3600
CPXPARAM_MIP_Tolerances_MIPGap                   0.029999999999999999
Tried aggregator 3 times.
MIP Presolve eliminated 91 rows and 49 columns.
MIP Presolve modified 3 coefficients.
Aggregator did 25 substitutions.
Reduced MIP has 64 rows, 46 columns, and 200 nonzeros.
Reduced MIP has 33 binaries, 13 generals, 0 SOSs, and 0 indicators.
Presolve time = 0.00 sec. (0.41 ticks)
Found incumbent of value 260.000000 after 0.00 sec. (0.74 ticks)
Probing time = 0.00 sec. (0.08 ticks)
Tried aggregator 1 time.
Detecting symmetries...
Reduced MIP has 64 rows, 46 columns, and 200 nonzeros.
Reduced MIP has 33 binaries, 13 generals, 0 SOSs, and 0 indicators.
Presolve time = 0.00 sec. (0.12 ticks)
Probing time = 0.00 sec. (0.08 ticks)
Clique table members: 48.
MIP emphasis: heuristic.
MIP search method: dynamic search.
Parallel mode: deterministic, using up to 8 threads.
Root relaxation solution time = 0.00 sec. (0.14 ticks)

        Nodes                                         Cuts/
   Node  Left     Objective  IInf  Best Integer    Best Bound    ItCnt     Gap

*     0+    0                          260.0000       60.0000            76.92%
*     0     0      integral     0      130.0000      130.0000       23    0.00%
Elapsed time = 0.01 sec. (1.28 ticks, tree = 0.00 MB, solutions = 2)
Version identifier: 22.1.1.0 | 2022-11-28 | 9160aff4d
CPXPARAM_Threads                                 8
CPXPARAM_Emphasis_MIP                            5
CPXPARAM_TimeLimit                               3600
CPXPARAM_MIP_Tolerances_MIPGap                   0.029999999999999999
Tried aggregator 3 times.
MIP Presolve eliminated 213 rows and 118 columns.
MIP Presolve modified 3 coefficients.
Aggregator did 36 substitutions.
Reduced MIP has 105 rows, 74 columns, and 333 nonzeros.
Reduced MIP has 54 binaries, 20 generals, 0 SOSs, and 0 indicators.
Presolve time = 0.00 sec. (0.73 ticks)
Probing time = 0.00 sec. (0.20 ticks)
Tried aggregator 1 time.
Detecting symmetries...
Reduced MIP has 105 rows, 74 columns, and 333 nonzeros.
Reduced MIP has 54 binaries, 20 generals, 0 SOSs, and 0 indicators.
Presolve time = 0.00 sec. (0.21 ticks)
Probing time = 0.00 sec. (0.20 ticks)
Clique table members: 134.
MIP emphasis: heuristic.
MIP search method: dynamic search.
Parallel mode: deterministic, using up to 8 threads.
Root relaxation solution time = 0.01 sec. (0.26 ticks)

        Nodes                                         Cuts/
   Node  Left     Objective  IInf  Best Integer    Best Bound    ItCnt     Gap

*     0     0      integral     0      150.0000      150.0000       43    0.00%
Elapsed time = 0.02 sec. (2.41 ticks, tree = 0.00 MB, solutions = 1)
Version identifier: 22.1.1.0 | 2022-11-28 | 9160aff4d
CPXPARAM_Threads                                 8
CPXPARAM_Emphasis_MIP                            5
CPXPARAM_TimeLimit                               3600
CPXPARAM_MIP_Tolerances_MIPGap                   0.029999999999999999
Tried aggregator 3 times.
MIP Presolve eliminated 225 rows and 124 columns.
MIP Presolve modified 3 coefficients.
Aggregator did 37 substitutions.
Reduced MIP has 141 rows, 99 columns, and 439 nonzeros.
Reduced MIP has 75 binaries, 24 generals, 0 SOSs, and 0 indicators.
Presolve time = 0.00 sec. (0.80 ticks)
Found incumbent of value 270.000000 after 0.01 sec. (1.56 ticks)
Probing time = 0.00 sec. (0.37 ticks)
Tried aggregator 1 time.
Detecting symmetries...
MIP Presolve eliminated 4 rows and 4 columns.
Reduced MIP has 137 rows, 95 columns, and 427 nonzeros.
Reduced MIP has 71 binaries, 24 generals, 0 SOSs, and 0 indicators.
Presolve time = 0.00 sec. (0.40 ticks)
Probing time = 0.00 sec. (0.35 ticks)
Clique table members: 279.
MIP emphasis: heuristic.
MIP search method: dynamic search.
Parallel mode: deterministic, using up to 8 threads.
Root relaxation solution time = 0.00 sec. (0.44 ticks)

        Nodes                                         Cuts/
   Node  Left     Objective  IInf  Best Integer    Best Bound    ItCnt     Gap

*     0+    0                          270.0000       60.0000            77.78%
*     0     0      integral     0      150.0000      150.0000       65    0.00%
Elapsed time = 0.02 sec. (3.42 ticks, tree = 0.00 MB, solutions = 2)
Version identifier: 22.1.1.0 | 2022-11-28 | 9160aff4d
CPXPARAM_Threads                                 8
CPXPARAM_Emphasis_MIP                            5
CPXPARAM_TimeLimit                               3600
CPXPARAM_MIP_Tolerances_MIPGap                   0.029999999999999999
Tried aggregator 3 times.
MIP Presolve eliminated 350 rows and 196 columns.
MIP Presolve modified 3 coefficients.
Aggregator did 54 substitutions.
Reduced MIP has 260 rows, 176 columns, and 815 nonzeros.
Reduced MIP has 137 binaries, 39 generals, 0 SOSs, and 0 indicators.
Presolve time = 0.01 sec. (1.24 ticks)
Found incumbent of value 650.000000 after 0.01 sec. (2.80 ticks)
Probing time = 0.00 sec. (0.85 ticks)
Tried aggregator 1 time.
Detecting symmetries...
MIP Presolve eliminated 4 rows and 4 columns.
Reduced MIP has 256 rows, 172 columns, and 803 nonzeros.
Reduced MIP has 133 binaries, 39 generals, 0 SOSs, and 0 indicators.
Presolve time = 0.00 sec. (0.75 ticks)
Probing time = 0.00 sec. (0.83 ticks)
Clique table members: 580.
MIP emphasis: heuristic.
MIP search method: dynamic search.
Parallel mode: deterministic, using up to 8 threads.
Root relaxation solution time = 0.00 sec. (1.27 ticks)

        Nodes                                         Cuts/
   Node  Left     Objective  IInf  Best Integer    Best Bound    ItCnt     Gap

*     0+    0                          650.0000       60.0000            90.77%
*     0     0      integral     0      250.0000      250.0000      155    0.00%
Elapsed time = 0.02 sec. (7.08 ticks, tree = 0.00 MB, solutions = 2)

Root node processing (before b&c):
  Real time             =    0.02 sec. (3.43 ticks)
Parallel b&c, 8 threads:
  Real time             =    0.00 sec. (0.00 ticks)
  Sync time (average)   =    0.00 sec.
  Wait time (average)   =    0.00 sec.
                          ------------
Total (root+branch&cut) =    0.02 sec. (3.43 ticks)

Root node processing (before b&c):
  Real time             =    0.02 sec. (2.41 ticks)
Parallel b&c, 8 threads:
  Real time             =    0.00 sec. (0.00 ticks)
  Sync time (average)   =    0.00 sec.
  Wait time (average)   =    0.00 sec.
                          ------------
Total (root+branch&cut) =    0.02 sec. (2.41 ticks)
Version identifier: 22.1.1.0 | 2022-11-28 | 9160aff4d
CPXPARAM_Threads                                 8
CPXPARAM_Emphasis_MIP                            5
CPXPARAM_TimeLimit                               3600
CPXPARAM_MIP_Tolerances_MIPGap                   0.029999999999999999
Tried aggregator 3 times.
MIP Presolve eliminated 547 rows and 310 columns.
MIP Presolve modified 3 coefficients.
Aggregator did 70 substitutions.
Reduced MIP has 369 rows, 248 columns, and 1167 nonzeros.
Reduced MIP has 201 binaries, 47 generals, 0 SOSs, and 0 indicators.
Presolve time = 0.00 sec. (2.00 ticks)
Probing time = 0.00 sec. (1.76 ticks)
Tried aggregator 1 time.
Detecting symmetries...
MIP Presolve eliminated 5 rows and 5 columns.
Reduced MIP has 364 rows, 243 columns, and 1152 nonzeros.
Reduced MIP has 196 binaries, 47 generals, 0 SOSs, and 0 indicators.
Presolve time = 0.00 sec. (1.10 ticks)
Probing time = 0.00 sec. (1.72 ticks)
Clique table members: 817.
MIP emphasis: heuristic.
MIP search method: dynamic search.
Parallel mode: deterministic, using up to 8 threads.
Root relaxation solution time = 0.02 sec. (2.56 ticks)

        Nodes                                         Cuts/
   Node  Left     Objective  IInf  Best Integer    Best Bound    ItCnt     Gap

*     0+    0                          370.0000       60.0000            83.78%
      0     0      250.0000    48      370.0000      250.0000      229   32.43%
*     0+    0                          250.0000      250.0000             0.00%
      0     0        cutoff            250.0000      250.0000      229    0.00%
Elapsed time = 0.04 sec. (13.41 ticks, tree = 0.01 MB, solutions = 2)
Version identifier: 22.1.1.0 | 2022-11-28 | 9160aff4d
CPXPARAM_Threads                                 8
CPXPARAM_Emphasis_MIP                            5
CPXPARAM_TimeLimit                               3600
CPXPARAM_MIP_Tolerances_MIPGap                   0.029999999999999999
Tried aggregator 3 times.
MIP Presolve eliminated 573 rows and 327 columns.
MIP Presolve modified 3 coefficients.
Aggregator did 84 substitutions.
Reduced MIP has 389 rows, 258 columns, and 1264 nonzeros.
Reduced MIP has 207 binaries, 51 generals, 0 SOSs, and 0 indicators.
Presolve time = 0.01 sec. (2.15 ticks)
Probing time = 0.00 sec. (1.95 ticks)
Tried aggregator 1 time.
Detecting symmetries...
Reduced MIP has 389 rows, 258 columns, and 1264 nonzeros.
Reduced MIP has 207 binaries, 51 generals, 0 SOSs, and 0 indicators.
Presolve time = 0.00 sec. (0.81 ticks)
Probing time = 0.00 sec. (1.96 ticks)
Clique table members: 865.
MIP emphasis: heuristic.
MIP search method: dynamic search.
Parallel mode: deterministic, using up to 8 threads.
Root relaxation solution time = 0.02 sec. (2.06 ticks)

        Nodes                                         Cuts/
   Node  Left     Objective  IInf  Best Integer    Best Bound    ItCnt     Gap

*     0+    0                          510.0000       60.0000            88.24%
*     0     0      integral     0      250.0000      250.0000      218    0.00%
Elapsed time = 0.04 sec. (12.64 ticks, tree = 0.00 MB, solutions = 2)
Version identifier: 22.1.1.0 | 2022-11-28 | 9160aff4d
CPXPARAM_Threads                                 8
CPXPARAM_Emphasis_MIP                            5
CPXPARAM_TimeLimit                               3600
CPXPARAM_MIP_Tolerances_MIPGap                   0.029999999999999999
Tried aggregator 3 times.
MIP Presolve eliminated 855 rows and 482 columns.
MIP Presolve modified 3 coefficients.
Aggregator did 105 substitutions.
Reduced MIP has 464 rows, 312 columns, and 1491 nonzeros.
Reduced MIP has 254 binaries, 58 generals, 0 SOSs, and 0 indicators.
Presolve time = 0.01 sec. (2.79 ticks)
Found incumbent of value 710.000000 after 0.02 sec. (9.08 ticks)
Probing time = 0.00 sec. (2.33 ticks)
Tried aggregator 1 time.
Detecting symmetries...
Reduced MIP has 464 rows, 312 columns, and 1491 nonzeros.
Reduced MIP has 254 binaries, 58 generals, 0 SOSs, and 0 indicators.
Presolve time = 0.00 sec. (0.97 ticks)
Probing time = 0.00 sec. (2.31 ticks)
Clique table members: 1033.
MIP emphasis: heuristic.
MIP search method: dynamic search.
Parallel mode: deterministic, using up to 8 threads.
Root relaxation solution time = 0.00 sec. (2.93 ticks)

        Nodes                                         Cuts/
   Node  Left     Objective  IInf  Best Integer    Best Bound    ItCnt     Gap

*     0+    0                          710.0000       60.0000            91.55%
*     0     0      integral     0      270.0000      270.0000      256    0.00%
Elapsed time = 0.03 sec. (18.70 ticks, tree = 0.00 MB, solutions = 2)

Root node processing (before b&c):
  Real time             =    0.04 sec. (12.67 ticks)
Parallel b&c, 8 threads:
  Real time             =    0.00 sec. (0.00 ticks)
  Sync time (average)   =    0.00 sec.
  Wait time (average)   =    0.00 sec.
                          ------------
Total (root+branch&cut) =    0.04 sec. (12.67 ticks)

Root node processing (before b&c):
  Real time             =    0.04 sec. (13.43 ticks)
Parallel b&c, 8 threads:
  Real time             =    0.00 sec. (0.00 ticks)
  Sync time (average)   =    0.00 sec.
  Wait time (average)   =    0.00 sec.
                          ------------
Total (root+branch&cut) =    0.04 sec. (13.43 ticks)

Root node processing (before b&c):
  Real time             =    0.02 sec. (7.09 ticks)
Parallel b&c, 8 threads:
  Real time             =    0.00 sec. (0.00 ticks)
  Sync time (average)   =    0.00 sec.
  Wait time (average)   =    0.00 sec.
                          ------------
Total (root+branch&cut) =    0.02 sec. (7.09 ticks)

Root node processing (before b&c):
  Real time             =    0.03 sec. (18.73 ticks)
Parallel b&c, 8 threads:
  Real time             =    0.00 sec. (0.00 ticks)
  Sync time (average)   =    0.00 sec.
  Wait time (average)   =    0.00 sec.
                          ------------
Total (root+branch&cut) =    0.03 sec. (18.73 ticks)

Root node processing (before b&c):
  Real time             =    0.01 sec. (1.28 ticks)
Parallel b&c, 8 threads:
  Real time             =    0.00 sec. (0.00 ticks)
  Sync time (average)   =    0.00 sec.
  Wait time (average)   =    0.00 sec.
                          ------------
Total (root+branch&cut) =    0.01 sec. (1.28 ticks)

Root node processing (before b&c):
  Real time             =    0.04 sec. (1.02 ticks)
Parallel b&c, 8 threads:
  Real time             =    0.00 sec. (0.00 ticks)
  Sync time (average)   =    0.00 sec.
  Wait time (average)   =    0.00 sec.
                          ------------
Total (root+branch&cut) =    0.04 sec. (1.02 ticks)
Version identifier: 22.1.1.0 | 2022-11-28 | 9160aff4d
CPXPARAM_Threads                                 8
CPXPARAM_Emphasis_MIP                            5
CPXPARAM_TimeLimit                               3600
CPXPARAM_MIP_Tolerances_MIPGap                   0.029999999999999999
Tried aggregator 3 times.
MIP Presolve eliminated 71 rows and 35 columns.
MIP Presolve modified 3 coefficients.
Aggregator did 19 substitutions.
Reduced MIP has 53 rows, 41 columns, and 172 nonzeros.
Reduced MIP has 29 binaries, 12 generals, 0 SOSs, and 0 indicators.
Presolve time = 0.01 sec. (0.31 ticks)
Found incumbent of value 250.000000 after 0.04 sec. (0.58 ticks)
Probing time = 0.00 sec. (0.06 ticks)
Tried aggregator 1 time.
Detecting symmetries...
Reduced MIP has 53 rows, 41 columns, and 172 nonzeros.
Reduced MIP has 29 binaries, 12 generals, 0 SOSs, and 0 indicators.
Presolve time = 0.00 sec. (0.10 ticks)
Probing time = 0.00 sec. (0.06 ticks)
Clique table members: 14.
MIP emphasis: heuristic.
MIP search method: dynamic search.
Parallel mode: deterministic, using up to 8 threads.
Root relaxation solution time = 0.00 sec. (0.11 ticks)

        Nodes                                         Cuts/
   Node  Left     Objective  IInf  Best Integer    Best Bound    ItCnt     Gap

*     0+    0                          250.0000       60.0000            76.00%
*     0     0      integral     0      130.0000      130.0000       18    0.00%
Elapsed time = 0.05 sec. (1.01 ticks, tree = 0.00 MB, solutions = 2)
Version identifier: 22.1.1.0 | 2022-11-28 | 9160aff4d
CPXPARAM_Threads                                 8
CPXPARAM_Emphasis_MIP                            5
CPXPARAM_TimeLimit                               3600
CPXPARAM_MIP_Tolerances_MIPGap                   0.029999999999999999
Tried aggregator 3 times.
MIP Presolve eliminated 91 rows and 49 columns.
MIP Presolve modified 3 coefficients.
Aggregator did 25 substitutions.
Reduced MIP has 64 rows, 46 columns, and 200 nonzeros.
Reduced MIP has 33 binaries, 13 generals, 0 SOSs, and 0 indicators.
Presolve time = 0.00 sec. (0.41 ticks)
Found incumbent of value 260.000000 after 0.00 sec. (0.74 ticks)
Probing time = 0.00 sec. (0.08 ticks)
Tried aggregator 1 time.
Detecting symmetries...
Reduced MIP has 64 rows, 46 columns, and 200 nonzeros.
Reduced MIP has 33 binaries, 13 generals, 0 SOSs, and 0 indicators.
Presolve time = 0.00 sec. (0.12 ticks)
Probing time = 0.00 sec. (0.08 ticks)
Clique table members: 48.
MIP emphasis: heuristic.
MIP search method: dynamic search.
Parallel mode: deterministic, using up to 8 threads.
Root relaxation solution time = 0.00 sec. (0.14 ticks)

        Nodes                                         Cuts/
   Node  Left     Objective  IInf  Best Integer    Best Bound    ItCnt     Gap

*     0+    0                          260.0000       60.0000            76.92%
*     0     0      integral     0      130.0000      130.0000       23    0.00%
Elapsed time = 0.01 sec. (1.28 ticks, tree = 0.00 MB, solutions = 2)
Version identifier: 22.1.1.0 | 2022-11-28 | 9160aff4d
CPXPARAM_Threads                                 8
CPXPARAM_Emphasis_MIP                            5
CPXPARAM_TimeLimit                               3600
CPXPARAM_MIP_Tolerances_MIPGap                   0.029999999999999999
Tried aggregator 3 times.
MIP Presolve eliminated 213 rows and 118 columns.
MIP Presolve modified 3 coefficients.
Aggregator did 36 substitutions.
Reduced MIP has 105 rows, 74 columns, and 333 nonzeros.
Reduced MIP has 54 binaries, 20 generals, 0 SOSs, and 0 indicators.
Presolve time = 0.00 sec. (0.73 ticks)
Probing time = 0.00 sec. (0.20 ticks)
Tried aggregator 1 time.
Detecting symmetries...
Reduced MIP has 105 rows, 74 columns, and 333 nonzeros.
Reduced MIP has 54 binaries, 20 generals, 0 SOSs, and 0 indicators.
Presolve time = 0.00 sec. (0.21 ticks)
Probing time = 0.00 sec. (0.20 ticks)
Clique table members: 134.
MIP emphasis: heuristic.
MIP search method: dynamic search.
Parallel mode: deterministic, using up to 8 threads.
Root relaxation solution time = 0.01 sec. (0.26 ticks)

        Nodes                                         Cuts/
   Node  Left     Objective  IInf  Best Integer    Best Bound    ItCnt     Gap

*     0     0      integral     0      150.0000      150.0000       43    0.00%
Elapsed time = 0.02 sec. (2.41 ticks, tree = 0.00 MB, solutions = 1)
Version identifier: 22.1.1.0 | 2022-11-28 | 9160aff4d
CPXPARAM_Threads                                 8
CPXPARAM_Emphasis_MIP                            5
CPXPARAM_TimeLimit                               3600
CPXPARAM_MIP_Tolerances_MIPGap                   0.029999999999999999
Tried aggregator 3 times.
MIP Presolve eliminated 225 rows and 124 columns.
MIP Presolve modified 3 coefficients.
Aggregator did 37 substitutions.
Reduced MIP has 141 rows, 99 columns, and 439 nonzeros.
Reduced MIP has 75 binaries, 24 generals, 0 SOSs, and 0 indicators.
Presolve time = 0.00 sec. (0.80 ticks)
Found incumbent of value 270.000000 after 0.01 sec. (1.56 ticks)
Probing time = 0.00 sec. (0.37 ticks)
Tried aggregator 1 time.
Detecting symmetries...
MIP Presolve eliminated 4 rows and 4 columns.
Reduced MIP has 137 rows, 95 columns, and 427 nonzeros.
Reduced MIP has 71 binaries, 24 generals, 0 SOSs, and 0 indicators.
Presolve time = 0.00 sec. (0.40 ticks)
Probing time = 0.00 sec. (0.35 ticks)
Clique table members: 279.
MIP emphasis: heuristic.
MIP search method: dynamic search.
Parallel mode: deterministic, using up to 8 threads.
Root relaxation solution time = 0.00 sec. (0.44 ticks)

        Nodes                                         Cuts/
   Node  Left     Objective  IInf  Best Integer    Best Bound    ItCnt     Gap

*     0+    0                          270.0000       60.0000            77.78%
*     0     0      integral     0      150.0000      150.0000       65    0.00%
Elapsed time = 0.01 sec. (3.42 ticks, tree = 0.00 MB, solutions = 2)
Version identifier: 22.1.1.0 | 2022-11-28 | 9160aff4d
CPXPARAM_Threads                                 8
CPXPARAM_Emphasis_MIP                            5
CPXPARAM_TimeLimit                               3600
CPXPARAM_MIP_Tolerances_MIPGap                   0.029999999999999999
Tried aggregator 3 times.
MIP Presolve eliminated 350 rows and 196 columns.
MIP Presolve modified 3 coefficients.
Aggregator did 54 substitutions.
Reduced MIP has 260 rows, 176 columns, and 815 nonzeros.
Reduced MIP has 137 binaries, 39 generals, 0 SOSs, and 0 indicators.
Presolve time = 0.00 sec. (1.24 ticks)
Found incumbent of value 650.000000 after 0.00 sec. (2.80 ticks)
Probing time = 0.00 sec. (0.85 ticks)
Tried aggregator 1 time.
Detecting symmetries...
MIP Presolve eliminated 4 rows and 4 columns.
Reduced MIP has 256 rows, 172 columns, and 803 nonzeros.
Reduced MIP has 133 binaries, 39 generals, 0 SOSs, and 0 indicators.
Presolve time = 0.00 sec. (0.75 ticks)
Probing time = 0.00 sec. (0.83 ticks)
Clique table members: 580.
MIP emphasis: heuristic.
MIP search method: dynamic search.
Parallel mode: deterministic, using up to 8 threads.
Root relaxation solution time = 0.00 sec. (1.27 ticks)

        Nodes                                         Cuts/
   Node  Left     Objective  IInf  Best Integer    Best Bound    ItCnt     Gap

*     0+    0                          650.0000       60.0000            90.77%
*     0     0      integral     0      250.0000      250.0000      155    0.00%
Elapsed time = 0.01 sec. (7.08 ticks, tree = 0.00 MB, solutions = 2)

Root node processing (before b&c):
  Real time             =    0.01 sec. (3.43 ticks)
Parallel b&c, 8 threads:
  Real time             =    0.00 sec. (0.00 ticks)
  Sync time (average)   =    0.00 sec.
  Wait time (average)   =    0.00 sec.
                          ------------
Total (root+branch&cut) =    0.01 sec. (3.43 ticks)

Root node processing (before b&c):
  Real time             =    0.02 sec. (2.41 ticks)
Parallel b&c, 8 threads:
  Real time             =    0.00 sec. (0.00 ticks)
  Sync time (average)   =    0.00 sec.
  Wait time (average)   =    0.00 sec.
                          ------------
Total (root+branch&cut) =    0.02 sec. (2.41 ticks)
Version identifier: 22.1.1.0 | 2022-11-28 | 9160aff4d
CPXPARAM_Threads                                 8
CPXPARAM_Emphasis_MIP                            5
CPXPARAM_TimeLimit                               3600
CPXPARAM_MIP_Tolerances_MIPGap                   0.029999999999999999
Tried aggregator 3 times.
MIP Presolve eliminated 547 rows and 310 columns.
MIP Presolve modified 3 coefficients.
Aggregator did 70 substitutions.
Reduced MIP has 369 rows, 248 columns, and 1167 nonzeros.
Reduced MIP has 201 binaries, 47 generals, 0 SOSs, and 0 indicators.
Presolve time = 0.00 sec. (2.00 ticks)
Probing time = 0.00 sec. (1.76 ticks)
Tried aggregator 1 time.
Detecting symmetries...
MIP Presolve eliminated 5 rows and 5 columns.
Reduced MIP has 364 rows, 243 columns, and 1152 nonzeros.
Reduced MIP has 196 binaries, 47 generals, 0 SOSs, and 0 indicators.
Presolve time = 0.00 sec. (1.10 ticks)
Probing time = 0.00 sec. (1.72 ticks)
Clique table members: 817.
MIP emphasis: heuristic.
MIP search method: dynamic search.
Parallel mode: deterministic, using up to 8 threads.
Root relaxation solution time = 0.02 sec. (2.56 ticks)

        Nodes                                         Cuts/
   Node  Left     Objective  IInf  Best Integer    Best Bound    ItCnt     Gap

*     0+    0                          370.0000       60.0000            83.78%
      0     0      250.0000    48      370.0000      250.0000      229   32.43%
*     0+    0                          250.0000      250.0000             0.00%
      0     0        cutoff            250.0000      250.0000      229    0.00%
Elapsed time = 0.04 sec. (13.41 ticks, tree = 0.01 MB, solutions = 2)
Version identifier: 22.1.1.0 | 2022-11-28 | 9160aff4d
CPXPARAM_Threads                                 8
CPXPARAM_Emphasis_MIP                            5
CPXPARAM_TimeLimit                               3600
CPXPARAM_MIP_Tolerances_MIPGap                   0.029999999999999999
Tried aggregator 3 times.
MIP Presolve eliminated 573 rows and 327 columns.
MIP Presolve modified 3 coefficients.
Aggregator did 84 substitutions.
Reduced MIP has 389 rows, 258 columns, and 1264 nonzeros.
Reduced MIP has 207 binaries, 51 generals, 0 SOSs, and 0 indicators.
Presolve time = 0.01 sec. (2.15 ticks)
Probing time = 0.00 sec. (1.95 ticks)
Tried aggregator 1 time.
Detecting symmetries...
Reduced MIP has 389 rows, 258 columns, and 1264 nonzeros.
Reduced MIP has 207 binaries, 51 generals, 0 SOSs, and 0 indicators.
Presolve time = 0.00 sec. (0.81 ticks)
Probing time = 0.00 sec. (1.96 ticks)
Clique table members: 865.
MIP emphasis: heuristic.
MIP search method: dynamic search.
Parallel mode: deterministic, using up to 8 threads.
Root relaxation solution time = 0.02 sec. (2.06 ticks)

        Nodes                                         Cuts/
   Node  Left     Objective  IInf  Best Integer    Best Bound    ItCnt     Gap

*     0+    0                          510.0000       60.0000            88.24%
*     0     0      integral     0      250.0000      250.0000      218    0.00%
Elapsed time = 0.04 sec. (12.64 ticks, tree = 0.00 MB, solutions = 2)
Version identifier: 22.1.1.0 | 2022-11-28 | 9160aff4d
CPXPARAM_Threads                                 8
CPXPARAM_Emphasis_MIP                            5
CPXPARAM_TimeLimit                               3600
CPXPARAM_MIP_Tolerances_MIPGap                   0.029999999999999999
Tried aggregator 3 times.
MIP Presolve eliminated 855 rows and 482 columns.
MIP Presolve modified 3 coefficients.
Aggregator did 105 substitutions.
Reduced MIP has 464 rows, 312 columns, and 1491 nonzeros.
Reduced MIP has 254 binaries, 58 generals, 0 SOSs, and 0 indicators.
Presolve time = 0.01 sec. (2.79 ticks)
Found incumbent of value 710.000000 after 0.01 sec. (9.08 ticks)
Probing time = 0.00 sec. (2.33 ticks)
Tried aggregator 1 time.
Detecting symmetries...
Reduced MIP has 464 rows, 312 columns, and 1491 nonzeros.
Reduced MIP has 254 binaries, 58 generals, 0 SOSs, and 0 indicators.
Presolve time = 0.00 sec. (0.97 ticks)
Probing time = 0.00 sec. (2.31 ticks)
Clique table members: 1033.
MIP emphasis: heuristic.
MIP search method: dynamic search.
Parallel mode: deterministic, using up to 8 threads.
Root relaxation solution time = 0.00 sec. (2.93 ticks)

        Nodes                                         Cuts/
   Node  Left     Objective  IInf  Best Integer    Best Bound    ItCnt     Gap

*     0+    0                          710.0000       60.0000            91.55%
*     0     0      integral     0      270.0000      270.0000      256    0.00%
Elapsed time = 0.03 sec. (18.70 ticks, tree = 0.00 MB, solutions = 2)

Root node processing (before b&c):
  Real time             =    0.04 sec. (12.67 ticks)
Parallel b&c, 8 threads:
  Real time             =    0.00 sec. (0.00 ticks)
  Sync time (average)   =    0.00 sec.
  Wait time (average)   =    0.00 sec.
                          ------------
Total (root+branch&cut) =    0.04 sec. (12.67 ticks)

Root node processing (before b&c):
  Real time             =    0.04 sec. (13.43 ticks)
Parallel b&c, 8 threads:
  Real time             =    0.00 sec. (0.00 ticks)
  Sync time (average)   =    0.00 sec.
  Wait time (average)   =    0.00 sec.
                          ------------
Total (root+branch&cut) =    0.04 sec. (13.43 ticks)

Root node processing (before b&c):
  Real time             =    0.01 sec. (7.09 ticks)
Parallel b&c, 8 threads:
  Real time             =    0.00 sec. (0.00 ticks)
  Sync time (average)   =    0.00 sec.
  Wait time (average)   =    0.00 sec.
                          ------------
Total (root+branch&cut) =    0.01 sec. (7.09 ticks)

Root node processing (before b&c):
  Real time             =    0.03 sec. (18.73 ticks)
Parallel b&c, 8 threads:
  Real time             =    0.00 sec. (0.00 ticks)
  Sync time (average)   =    0.00 sec.
  Wait time (average)   =    0.00 sec.
                          ------------
Total (root+branch&cut) =    0.03 sec. (18.73 ticks)

Root node processing (before b&c):
  Real time             =    0.01 sec. (1.28 ticks)
Parallel b&c, 8 threads:
  Real time             =    0.00 sec. (0.00 ticks)
  Sync time (average)   =    0.00 sec.
  Wait time (average)   =    0.00 sec.
                          ------------
Total (root+branch&cut) =    0.01 sec. (1.28 ticks)

Root node processing (before b&c):
  Real time             =    0.05 sec. (1.02 ticks)
Parallel b&c, 8 threads:
  Real time             =    0.00 sec. (0.00 ticks)
  Sync time (average)   =    0.00 sec.
  Wait time (average)   =    0.00 sec.
                          ------------
Total (root+branch&cut) =    0.05 sec. (1.02 ticks)
